c is-sat
p cnf 8 54
8 7 1 0
-1 7 -4 0
-6 -2 -8 0
-1 3 8 0
-7 -6 -3 0
-5 -3 4 0
-2 -3 -6 0
2 -5 -7 0
-6 -2 -5 0
4 -1 2 0
-4 -8 -7 0
5 -8 -6 0
-7 -2 -1 0
-2 -3 -8 0
-3 -5 -6 0
-3 -4 1 0
-5 6 -2 0
-6 -1 2 0
3 -7 -8 0
4 -2 8 0
-8 2 1 0
-8 -7 -5 0
2 4 -5 0
-6 -4 -2 0
-1 3 -8 0
-1 7 -3 0
3 -1 -8 0
3 8 -7 0
-5 -7 -1 0
-2 -3 7 0
-1 -3 4 0
-4 -1 -5 0
-6 -3 -7 0
6 -5 4 0
-6 -1 -4 0
7 -6 1 0
1 -7 -8 0
-2 -3 5 0
3 -5 -7 0
-6 -4 -5 0
1 3 -5 0
5 -2 -8 0
-5 3 -8 0
-3 -6 -2 0
-7 8 -6 0
-2 -6 -5 0
-8 -5 -2 0
-7 5 -2 0
-1 -3 4 0
-7 -2 1 0
-5 6 -3 0
-3 -8 -1 0
1 -5 -8 0
7 -3 -1 0
